c exact bi-apex structural outer CNF
c encoding_schema "p97-biapex-structural-outer-direct-cnf-v1"
c n 5
c omitted_apices [0, 1]
c bank null
c bank_schema_count 0
c embeddable_schema_count 0
c skipped_schema_count_core_larger_than_n 0
c schema_embedding_count 0
c variable_count 50
c clause_count 134
c clause_block_counts {"blocker_at_least_one": 5, "blocker_at_most_one": 9, "blocker_forbidden": 13, "blocker_implies_source_membership": 12, "cyclic_alternation": 20, "pair_center_count_at_most_2": 10, "row_at_least_4": 20, "row_intersection_at_most_2": 10, "row_nonself": 5, "strong_connectivity_outgoing_cut": 30}
c var 1 m_0_0
c var 2 m_0_1
c var 3 m_0_2
c var 4 m_0_3
c var 5 m_0_4
c var 6 m_1_0
c var 7 m_1_1
c var 8 m_1_2
c var 9 m_1_3
c var 10 m_1_4
c var 11 m_2_0
c var 12 m_2_1
c var 13 m_2_2
c var 14 m_2_3
c var 15 m_2_4
c var 16 m_3_0
c var 17 m_3_1
c var 18 m_3_2
c var 19 m_3_3
c var 20 m_3_4
c var 21 m_4_0
c var 22 m_4_1
c var 23 m_4_2
c var 24 m_4_3
c var 25 m_4_4
c var 26 b_0_0
c var 27 b_0_1
c var 28 b_0_2
c var 29 b_0_3
c var 30 b_0_4
c var 31 b_1_0
c var 32 b_1_1
c var 33 b_1_2
c var 34 b_1_3
c var 35 b_1_4
c var 36 b_2_0
c var 37 b_2_1
c var 38 b_2_2
c var 39 b_2_3
c var 40 b_2_4
c var 41 b_3_0
c var 42 b_3_1
c var 43 b_3_2
c var 44 b_3_3
c var 45 b_3_4
c var 46 b_4_0
c var 47 b_4_1
c var 48 b_4_2
c var 49 b_4_3
c var 50 b_4_4
p cnf 50 134
-1 0
2 0
3 0
4 0
5 0
-7 0
6 0
8 0
9 0
10 0
-13 0
11 0
12 0
14 0
15 0
-19 0
16 0
17 0
18 0
20 0
-25 0
21 0
22 0
23 0
24 0
-3 -8 -4 -9 -5 -10 0
-2 -12 -4 -14 -5 -15 0
-2 -17 -3 -18 -5 -20 0
-2 -22 -3 -23 -4 -24 0
-6 -11 -9 -14 -10 -15 0
-6 -16 -8 -18 -10 -20 0
-6 -21 -8 -23 -9 -24 0
-11 -16 -12 -17 -15 -20 0
-11 -21 -12 -22 -14 -24 0
-16 -21 -17 -22 -18 -23 0
-11 -12 -16 -17 -21 -22 0
-6 -8 -16 -18 -21 -23 0
-6 -9 -11 -14 -21 -24 0
-6 -10 -11 -15 -16 -20 0
-2 -3 -17 -18 -22 -23 0
-2 -4 -12 -14 -22 -24 0
-2 -5 -12 -15 -17 -20 0
-3 -4 -8 -9 -23 -24 0
-3 -5 -8 -10 -18 -20 0
-4 -5 -9 -10 -14 -15 0
-3 -4 -8 -9 0
-3 -5 -8 -10 0
-4 -5 -9 -10 0
-4 -5 -14 -15 0
-2 -3 -17 -18 0
-2 -3 -22 -23 0
-2 -4 -22 -24 0
-3 -4 -23 -24 0
-6 -9 -11 -14 0
-6 -10 -11 -15 0
-9 -10 -14 -15 0
-6 -10 -16 -20 0
-8 -9 -23 -24 0
-11 -12 -16 -17 0
-11 -15 -16 -20 0
-12 -15 -17 -20 0
-11 -12 -21 -22 0
-16 -17 -21 -22 0
-16 -18 -21 -23 0
-17 -18 -22 -23 0
2 3 4 5 0
6 8 9 10 0
11 12 14 15 0
16 17 18 20 0
21 22 23 24 0
3 4 5 8 9 10 0
2 4 5 12 14 15 0
2 3 5 17 18 20 0
2 3 4 22 23 24 0
6 9 10 11 14 15 0
6 8 10 16 18 20 0
6 8 9 21 23 24 0
11 12 15 16 17 20 0
11 12 14 21 22 24 0
16 17 18 21 22 23 0
4 5 9 10 14 15 0
3 5 8 10 18 20 0
3 4 8 9 23 24 0
2 5 12 15 17 20 0
2 4 12 14 22 24 0
2 3 17 18 22 23 0
6 10 11 15 16 20 0
6 9 11 14 21 24 0
6 8 16 18 21 23 0
11 12 16 17 21 22 0
5 10 15 20 0
4 9 14 24 0
3 8 18 23 0
2 12 17 22 0
6 11 16 21 0
28 29 30 0
-28 -29 0
-28 -30 0
-29 -30 0
-26 0
-27 0
-28 11 0
-29 16 0
-30 21 0
33 34 35 0
-33 -34 0
-33 -35 0
-34 -35 0
-31 0
-32 0
-33 12 0
-34 17 0
-35 22 0
39 40 0
-39 -40 0
-36 0
-37 0
-38 0
-39 18 0
-40 23 0
43 45 0
-43 -45 0
-41 0
-42 0
-43 14 0
-44 0
-45 24 0
48 49 0
-48 -49 0
-46 0
-47 0
-48 15 0
-49 20 0
-50 0
